 &control
    calculation   = 'nscf'
    pseudo_dir    = '/home/edmondium/quantum/pseudo/'
    outdir        = '/home/edmondium/quantum/tempdir/'
    lberry        = .true.
    gdir          = 3
    nppstr        = 7
 /
 &system
    ibrav         = 4
    celldm(1)     = 4.73773237
    celldm(3)     = 7.69024047
    nat           = 2
    ntyp          = 1
    nbnd          = 28
    ecutwfc       = 30.0
    ecutrho       = 250
    starting_magnetization(1)=-1
    occupations   = 'fixed'
    degauss       = 0.00
    nspin         = 2
 /
 &electrons
    startingwfc   = 'random'
    diagonalization='cg'
    conv_thr      = 1e-10
    mixing_beta   = 0.3
 /
ATOMIC_SPECIES
  Co   58.933194      Co.pz-nd-rrkjus.UPF
ATOMIC_POSITIONS
  Co    0.000    0.000    0.000
  Co    0.333    0.667    0.250
K_POINTS {automatic}
  16 16 16  0 0 0
