 &control
    calculation  = 'scf'
    restart_mode = 'from_scratch'
    pseudo_dir   = '/home/edmondium/quantum/pseudo/'
    outdir       = '/home/edmondium/quantum/tempdir/'
 /
 &system
    ibrav=4
    celldm(1)=4.73773237
    celldm(3)=7.69024047
    nat=2
    ntyp=1
    nbnd=25
    ecutwfc=30.0
    ecutrho=250
    starting_magnetization(1)=-1
    occupations = 'smearing'
    smearing='cold'
    degauss=0.02
    nspin=2
 /
 &electrons
    startingwfc='random'
    diagonalization='cg'
    conv_thr = 1e-12,
    mixing_beta=0.3,
 /
ATOMIC_SPECIES
  Co   58.933194      Co.pz-nd-rrkjus.UPF
ATOMIC_POSITIONS
  Co    0.000    0.000    0.000
  Co    0.333    0.667    0.250
K_POINTS {automatic}
  16 16 16 0 0 0
