 &control
    calculation  = 'scf'
    restart_mode = 'from_scratch'
    pseudo_dir   = '/home/edmondium/Documents/qe-6.7/pseudo/'
    outdir       = '/home/edmondium/Documents/qe-6.7/tempdir/'
 /
 &system
    ibrav=3
    celldm(1)=5.4991
    nat=1
    ntyp=1
    nbnd=25
    ecutwfc=48.0
    lspinorb=.false.
    noncolin=.false.
    starting_magnetization(1)=-1
    occupations = 'smearing'
    smearing='cold'
    degauss=0.02
 /
 &electrons
    startingwfc='random'
    diagonalization='cg'
    conv_thr = 1e-12,
    mixing_beta=0.3,
 /
ATOMIC_SPECIES
  Cr   51.9961      Cr.pbe-spn-rrkjus_psl.1.0.0.UPF
ATOMIC_POSITIONS alat
  Cr    0.000    0.000    0.000
K_POINTS {automatic}
  16 16 16 0 0 0
