 &control
    calculation   = 'nscf'
    pseudo_dir    = '/home/edmondium/quantum/pseudo/'
    outdir        = '/home/edmondium/quantum/tempdir/'
    lberry        = .true.
    gdir          = 3
    nppstr        = 7
 /
 &system
    ibrav         = 2
    celldm(1)     = 6.822
    nat           = 1
    ntyp          = 1
    nbnd          = 28
    ecutwfc       = 30.0
    lspinorb      = .false.
    noncolin      = .false.
    starting_magnetization(1)=0
    occupations   = 'fixed'
    degauss       = 0.00
 /
 &electrons
    startingwfc   = 'random'
    diagonalization='cg'
    conv_thr      = 1e-10
    mixing_beta   = 0.3
 /
ATOMIC_SPECIES
  Cu   63.546      Cu.pz-n-van_ak.UPF
ATOMIC_POSITIONS alat
  Cu    0.000    0.000    0.000
K_POINTS {automatic}
  16 16 16  0 0 0
