 &control
    calculation  = 'scf'
    restart_mode = 'from_scratch'
    pseudo_dir   = '/home/edmondium/quantum/pseudo/'
    outdir       = '/home/edmondium/quantum/tempdir/'
 /
 &system
    ibrav=3
    celldm(1)=16.8421841,
    nat=1
    ntyp=1
    nbnd=25
    ecutwfc=30.0
    lspinorb=.false.
    noncolin=.false.
    starting_magnetization(1)=-1
    occupations = 'smearing'
    smearing='cold'
    degauss=0.02
 /
 &electrons
    startingwfc='random'
    diagonalization='cg'
    conv_thr = 1e-12,
    mixing_beta=0.3,
 /
ATOMIC_SPECIES
  Mn   54.938043      Mn.pbe-sp-van.UPF
ATOMIC_POSITIONS alat
  Mn    0.000    0.000    0.000
K_POINTS {automatic}
  16 16 16 0 0 0
