 &control
    calculation   = 'nscf'
    pseudo_dir    = '/home/edmondium/quantum/pseudo/'
    outdir        = '/home/edmondium/quantum/tempdir/'
    lberry        = .true.
    gdir          = 3
    nppstr        = 7
 /
 &system
    ibrav         = 2
    celldm(1)     = 6.6593949
    nat           = 4
    ntyp          = 1
    nbnd          = 28
    ecutwfc       = 42.0
    ecutrho       = 462.0
    nspin         = 2
    starting_magnetization(1)=-1
    occupations   = 'fixed'
    degauss       = 0.00
 /
 &electrons
    startingwfc   = 'random'
    diagonalization='cg'
    conv_thr      = 1e-10
    mixing_beta   = 0.3
 /
ATOMIC_SPECIES
  Ni   58.6934      Ni.pz-nd-rrkjus.UPF
ATOMIC_POSITIONS
  Ni    0.000    0.000    0.000
  Ni    0.000    1.755    1.755
  Ni    1.755    0.000    1.755
  Ni    1.755    1.755    0.000
K_POINTS {automatic}
  16 16 16  0 0 0
