 &control
    calculation   = 'nscf'
    pseudo_dir    = '/home/edmondium/quantum/pseudo/'
    outdir        = '/home/edmondium/quantum/tempdir/'
    lberry        = .true.
    gdir          = 3
    nppstr        = 7
 /
 &system
    ibrav         = 4
    celldm(1)     = 6.2531037
    celldm(3)     = 9.96509277
    nat           = 1
    ntyp          = 1
    nbnd          = 28
    ecutwfc       = 30.0
    lspinorb      = .false.
    noncolin      = .false.
    starting_magnetization(1)=-1
    occupations   = 'fixed'
    degauss       = 0.00
 /
 &electrons
    startingwfc   = 'random'
    diagonalization='cg'
    conv_thr      = 1e-10
    mixing_beta   = 0.3
 /
ATOMIC_SPECIES
  Sc   44.955908      Sc.pbe-nsp-van.UPF
ATOMIC_POSITIONS alat
  Sc    0.000    0.000    0.000
K_POINTS {automatic}
  16 16 16  0 0 0
