 &control
    calculation   = 'nscf'
    pseudo_dir    = '/home/edmondium/Documents/qe-6.7/pseudo/'
    outdir        = '/home/edmondium/Documents/qe-6.7/tempdir/'
    lberry        = .true.
    gdir          = 3
    nppstr        = 7
 /
 &system
    ibrav         = 4
    celldm(1)     = 5.57620385
    celldm(3)     = 8.85431176
    nat           = 1
    ntyp          = 1
    nbnd          = 28
    ecutwfc       = 10.0
    lspinorb      = .false.
    noncolin      = .false.
    starting_magnetization(1)=-1
    occupations   = 'fixed'
    degauss       = 0.00
 /
 &electrons
    startingwfc   = 'random'
    diagonalization='cg'
    conv_thr      = 1e-10
    mixing_beta   = 0.3
 /
ATOMIC_SPECIES
  Ti   47.867      Ti.pbe-sp-van_ak.UPF
ATOMIC_POSITIONS alat
  Ti    0.000    0.000    0.000
K_POINTS {automatic}
  16 16 16  0 0 0
