 &control
    calculation  = 'scf'
    restart_mode = 'from_scratch'
    pseudo_dir   = '/home/edmondium/Documents/qe-6.7/pseudo/'
    outdir       = '/home/edmondium/Documents/qe-6.7/tempdir/'
 /
 &system
    ibrav=4
    celldm(1)=5.03593115
    celldm(3)=9.3480972
    nat=1
    ntyp=1
    nbnd=25
    ecutwfc=44.0
    lspinorb=.false.
    noncolin=.false.
    starting_magnetization(1)=0
    occupations = 'smearing'
    smearing='cold'
    degauss=0.02
 /
 &electrons
    startingwfc='random'
    diagonalization='cg'
    conv_thr = 1e-12,
    mixing_beta=0.3,
 /
ATOMIC_SPECIES
  Zn   65.38      Zn.pbe-dnl-rrkjus_psl.1.0.0.UPF
ATOMIC_POSITIONS alat
  Zn    0.000    0.000    0.000
K_POINTS {automatic}
  16 16 16 0 0 0
